; Command:
; > z3 -in -smt2

(set-logic QF_UFBV)
(declare-fun theory0_len ((_ BitVec 64)) (_ BitVec 64)); theory len
(declare-fun theory1_safe ((_ BitVec 64)) Bool); theory safe
(declare-fun theory2_nullterm ((_ BitVec 64)) Bool); theory nullterm
(declare-fun theory3_symbol ((_ BitVec 64)) Bool); theory symbol
; : /home/runner/work/carrier/carrier/modules/hex/src/lib.zz:2
; : /home/runner/work/carrier/carrier/modules/hex/src/lib.zz:1
; : /home/runner/work/carrier/carrier/modules/hex/src/lib.zz:2
; : /home/runner/work/carrier/carrier/modules/slice/src/slice.zz:3
; : /home/runner/work/carrier/carrier/modules/hex/src/lib.zz:5
; : /home/runner/work/carrier/carrier/modules/hex/src/lib.zz:5
; : /home/runner/work/carrier/carrier/modules/hex/src/lib.zz:6
; literal expr
(declare-fun var10_literal_Unsigned_0___t0 () (_ BitVec 64))
(assert
  (= var10_literal_Unsigned_0___t0 (_ bv0 64))

)

; : /home/runner/work/carrier/carrier/modules/hex/src/lib.zz:6
; literal expr
(declare-fun var11_literal_Unsigned_1___t0 () (_ BitVec 64))
(assert
  (= var11_literal_Unsigned_1___t0 (_ bv1 64))

)

; : /home/runner/work/carrier/carrier/modules/hex/src/lib.zz:6
; literal expr
(declare-fun var12_literal_Unsigned_2___t0 () (_ BitVec 64))
(assert
  (= var12_literal_Unsigned_2___t0 (_ bv2 64))

)

; : /home/runner/work/carrier/carrier/modules/hex/src/lib.zz:6
; literal expr
(declare-fun var13_literal_Unsigned_3___t0 () (_ BitVec 64))
(assert
  (= var13_literal_Unsigned_3___t0 (_ bv3 64))

)

; : /home/runner/work/carrier/carrier/modules/hex/src/lib.zz:6
; literal expr
(declare-fun var14_literal_Unsigned_4___t0 () (_ BitVec 64))
(assert
  (= var14_literal_Unsigned_4___t0 (_ bv4 64))

)

; : /home/runner/work/carrier/carrier/modules/hex/src/lib.zz:6
; literal expr
(declare-fun var15_literal_Unsigned_5___t0 () (_ BitVec 64))
(assert
  (= var15_literal_Unsigned_5___t0 (_ bv5 64))

)

; : /home/runner/work/carrier/carrier/modules/hex/src/lib.zz:6
; literal expr
(declare-fun var16_literal_Unsigned_6___t0 () (_ BitVec 64))
(assert
  (= var16_literal_Unsigned_6___t0 (_ bv6 64))

)

; : /home/runner/work/carrier/carrier/modules/hex/src/lib.zz:6
; literal expr
(declare-fun var17_literal_Unsigned_7___t0 () (_ BitVec 64))
(assert
  (= var17_literal_Unsigned_7___t0 (_ bv7 64))

)

; : /home/runner/work/carrier/carrier/modules/hex/src/lib.zz:7
; literal expr
(declare-fun var18_literal_Unsigned_8___t0 () (_ BitVec 64))
(assert
  (= var18_literal_Unsigned_8___t0 (_ bv8 64))

)

; : /home/runner/work/carrier/carrier/modules/hex/src/lib.zz:7
; literal expr
(declare-fun var19_literal_Unsigned_9___t0 () (_ BitVec 64))
(assert
  (= var19_literal_Unsigned_9___t0 (_ bv9 64))

)

; : /home/runner/work/carrier/carrier/modules/hex/src/lib.zz:7
; literal expr
(declare-fun var20_literal_Unsigned_0___t0 () (_ BitVec 64))
(assert
  (= var20_literal_Unsigned_0___t0 (_ bv0 64))

)

; : /home/runner/work/carrier/carrier/modules/hex/src/lib.zz:7
; literal expr
(declare-fun var21_literal_Unsigned_0___t0 () (_ BitVec 64))
(assert
  (= var21_literal_Unsigned_0___t0 (_ bv0 64))

)

; : /home/runner/work/carrier/carrier/modules/hex/src/lib.zz:7
; literal expr
(declare-fun var22_literal_Unsigned_0___t0 () (_ BitVec 64))
(assert
  (= var22_literal_Unsigned_0___t0 (_ bv0 64))

)

; : /home/runner/work/carrier/carrier/modules/hex/src/lib.zz:7
; literal expr
(declare-fun var23_literal_Unsigned_0___t0 () (_ BitVec 64))
(assert
  (= var23_literal_Unsigned_0___t0 (_ bv0 64))

)

; : /home/runner/work/carrier/carrier/modules/hex/src/lib.zz:7
; literal expr
(declare-fun var24_literal_Unsigned_0___t0 () (_ BitVec 64))
(assert
  (= var24_literal_Unsigned_0___t0 (_ bv0 64))

)

; : /home/runner/work/carrier/carrier/modules/hex/src/lib.zz:7
; literal expr
(declare-fun var25_literal_Unsigned_0___t0 () (_ BitVec 64))
(assert
  (= var25_literal_Unsigned_0___t0 (_ bv0 64))

)

; : /home/runner/work/carrier/carrier/modules/hex/src/lib.zz:8
; literal expr
(declare-fun var26_literal_Unsigned_0___t0 () (_ BitVec 64))
(assert
  (= var26_literal_Unsigned_0___t0 (_ bv0 64))

)

; : /home/runner/work/carrier/carrier/modules/hex/src/lib.zz:8
; literal expr
(declare-fun var27_literal_Unsigned_10___t0 () (_ BitVec 64))
(assert
  (= var27_literal_Unsigned_10___t0 (_ bv10 64))

)

; : /home/runner/work/carrier/carrier/modules/hex/src/lib.zz:8
; literal expr
(declare-fun var28_literal_Unsigned_11___t0 () (_ BitVec 64))
(assert
  (= var28_literal_Unsigned_11___t0 (_ bv11 64))

)

; : /home/runner/work/carrier/carrier/modules/hex/src/lib.zz:8
; literal expr
(declare-fun var29_literal_Unsigned_12___t0 () (_ BitVec 64))
(assert
  (= var29_literal_Unsigned_12___t0 (_ bv12 64))

)

; : /home/runner/work/carrier/carrier/modules/hex/src/lib.zz:8
; literal expr
(declare-fun var30_literal_Unsigned_13___t0 () (_ BitVec 64))
(assert
  (= var30_literal_Unsigned_13___t0 (_ bv13 64))

)

; : /home/runner/work/carrier/carrier/modules/hex/src/lib.zz:8
; literal expr
(declare-fun var31_literal_Unsigned_14___t0 () (_ BitVec 64))
(assert
  (= var31_literal_Unsigned_14___t0 (_ bv14 64))

)

; : /home/runner/work/carrier/carrier/modules/hex/src/lib.zz:8
; literal expr
(declare-fun var32_literal_Unsigned_15___t0 () (_ BitVec 64))
(assert
  (= var32_literal_Unsigned_15___t0 (_ bv15 64))

)

; : /home/runner/work/carrier/carrier/modules/hex/src/lib.zz:8
; literal expr
(declare-fun var33_literal_Unsigned_0___t0 () (_ BitVec 64))
(assert
  (= var33_literal_Unsigned_0___t0 (_ bv0 64))

)

; : /home/runner/work/carrier/carrier/modules/hex/src/lib.zz:9
; literal expr
(declare-fun var34_literal_Unsigned_0___t0 () (_ BitVec 64))
(assert
  (= var34_literal_Unsigned_0___t0 (_ bv0 64))

)

; : /home/runner/work/carrier/carrier/modules/hex/src/lib.zz:9
; literal expr
(declare-fun var35_literal_Unsigned_0___t0 () (_ BitVec 64))
(assert
  (= var35_literal_Unsigned_0___t0 (_ bv0 64))

)

; : /home/runner/work/carrier/carrier/modules/hex/src/lib.zz:9
; literal expr
(declare-fun var36_literal_Unsigned_0___t0 () (_ BitVec 64))
(assert
  (= var36_literal_Unsigned_0___t0 (_ bv0 64))

)

; : /home/runner/work/carrier/carrier/modules/hex/src/lib.zz:9
; literal expr
(declare-fun var37_literal_Unsigned_0___t0 () (_ BitVec 64))
(assert
  (= var37_literal_Unsigned_0___t0 (_ bv0 64))

)

; : /home/runner/work/carrier/carrier/modules/hex/src/lib.zz:9
; literal expr
(declare-fun var38_literal_Unsigned_0___t0 () (_ BitVec 64))
(assert
  (= var38_literal_Unsigned_0___t0 (_ bv0 64))

)

; : /home/runner/work/carrier/carrier/modules/hex/src/lib.zz:9
; literal expr
(declare-fun var39_literal_Unsigned_0___t0 () (_ BitVec 64))
(assert
  (= var39_literal_Unsigned_0___t0 (_ bv0 64))

)

; : /home/runner/work/carrier/carrier/modules/hex/src/lib.zz:9
; literal expr
(declare-fun var40_literal_Unsigned_0___t0 () (_ BitVec 64))
(assert
  (= var40_literal_Unsigned_0___t0 (_ bv0 64))

)

; : /home/runner/work/carrier/carrier/modules/hex/src/lib.zz:9
; literal expr
(declare-fun var41_literal_Unsigned_0___t0 () (_ BitVec 64))
(assert
  (= var41_literal_Unsigned_0___t0 (_ bv0 64))

)

; : /home/runner/work/carrier/carrier/modules/hex/src/lib.zz:5
(declare-fun var42_literal_array_42__t0 () (_ BitVec 64))
(declare-fun var43_true__t0 () Bool)
(assert
  (= var43_true__t0 (theory1_safe var42_literal_array_42__t0) )
)

(assert
  var43_true__t0
)

; : /home/runner/work/carrier/carrier/modules/hex/src/lib.zz:5
(declare-fun var44_safe_literal_array_42_____safe___hex__map___t0 () Bool)
(assert
  (= var44_safe_literal_array_42_____safe___hex__map___t0 (theory1_safe var42_literal_array_42__t0) )
)

(declare-fun var9___hex__map__t1 () (_ BitVec 64))
(assert
  (= var44_safe_literal_array_42_____safe___hex__map___t0 (theory1_safe var9___hex__map__t1) )
)

(declare-fun var45_nullterm_literal_array_42_____nullterm___hex__map___t0 () Bool)
(assert
  (= var45_nullterm_literal_array_42_____nullterm___hex__map___t0 (theory2_nullterm var42_literal_array_42__t0) )
)

(assert
  (= var45_nullterm_literal_array_42_____nullterm___hex__map___t0 (theory2_nullterm var9___hex__map__t1) )
)

(declare-fun var78_len___hex__map___t0 () (_ BitVec 64))
(assert
  (= var78_len___hex__map___t0 (theory0_len var9___hex__map__t1) )
)

(assert
  (= var78_len___hex__map___t0 (_ bv32 64))

)

; : /home/runner/work/carrier/carrier/modules/hex/src/lib.zz:12
(declare-fun var79___hex__str2bin__t0 () (_ BitVec 64))
(declare-fun var80_true__t0 () Bool)
(assert
  (= var80_true__t0 (theory1_safe var79___hex__str2bin__t0) )
)

(assert
  var80_true__t0
)

; : /home/runner/work/carrier/carrier/modules/slice/src/slice.zz:8
(declare-fun theory81___slice__slice__integrity ((_ BitVec 64)) Bool); theory ::slice::slice::integrity
; : /home/runner/work/carrier/carrier/modules/slice/src/slice.zz:14
(declare-fun var82___slice__slice__eq__t0 () (_ BitVec 64))
(declare-fun var83_true__t0 () Bool)
(assert
  (= var83_true__t0 (theory1_safe var82___slice__slice__eq__t0) )
)

(assert
  var83_true__t0
)

; : /home/runner/work/carrier/carrier/modules/slice/src/slice.zz:33
(declare-fun var84___slice__slice__eq_bytes__t0 () (_ BitVec 64))
(declare-fun var85_true__t0 () Bool)
(assert
  (= var85_true__t0 (theory1_safe var84___slice__slice__eq_bytes__t0) )
)

(assert
  var85_true__t0
)

; : /home/runner/work/carrier/carrier/modules/slice/src/slice.zz:95
(declare-fun var86___slice__slice__sub__t0 () (_ BitVec 64))
(declare-fun var87_true__t0 () Bool)
(assert
  (= var87_true__t0 (theory1_safe var86___slice__slice__sub__t0) )
)

(assert
  var87_true__t0
)

; : /home/runner/work/carrier/carrier/modules/hex/src/lib.zz:51
(declare-fun var88___hex__dump_slice__t0 () (_ BitVec 64))
(declare-fun var89_true__t0 () Bool)
(assert
  (= var89_true__t0 (theory1_safe var88___hex__dump_slice__t0) )
)

(assert
  var89_true__t0
)

; : /home/runner/work/carrier/carrier/modules/slice/src/slice.zz:63
(declare-fun var90___slice__slice__split__t0 () (_ BitVec 64))
(declare-fun var91_true__t0 () Bool)
(assert
  (= var91_true__t0 (theory1_safe var90___slice__slice__split__t0) )
)

(assert
  var91_true__t0
)

; : /home/runner/work/carrier/carrier/modules/hex/src/lib.zz:63
(declare-fun var92___hex__dump__t0 () (_ BitVec 64))
(declare-fun var93_true__t0 () Bool)
(assert
  (= var93_true__t0 (theory1_safe var92___hex__dump__t0) )
)

(assert
  var93_true__t0
)

; : /home/runner/work/carrier/carrier/modules/hex/src/lib.zz:75
(declare-fun var94___hex__fdump__t0 () (_ BitVec 64))
(declare-fun var95_true__t0 () Bool)
(assert
  (= var95_true__t0 (theory1_safe var94___hex__fdump__t0) )
)

(assert
  var95_true__t0
)

; : /home/runner/work/carrier/carrier/modules/slice/src/slice.zz:135
(declare-fun var96___slice__slice__atoi__t0 () (_ BitVec 64))
(declare-fun var97_true__t0 () Bool)
(assert
  (= var97_true__t0 (theory1_safe var96___slice__slice__atoi__t0) )
)

(assert
  var97_true__t0
)

; : /home/runner/work/carrier/carrier/modules/slice/src/slice.zz:43
(declare-fun var98___slice__slice__empty__t0 () (_ BitVec 64))
(declare-fun var99_true__t0 () Bool)
(assert
  (= var99_true__t0 (theory1_safe var98___slice__slice__empty__t0) )
)

(assert
  var99_true__t0
)

; : /home/runner/work/carrier/carrier/modules/slice/src/slice.zz:51
(declare-fun var100___slice__slice__make__t0 () (_ BitVec 64))
(declare-fun var101_true__t0 () Bool)
(assert
  (= var101_true__t0 (theory1_safe var100___slice__slice__make__t0) )
)

(assert
  var101_true__t0
)

; : /home/runner/work/carrier/carrier/modules/hex/src/lib.zz:42
(declare-fun var102___hex__print__t0 () (_ BitVec 64))
(declare-fun var103_true__t0 () Bool)
(assert
  (= var103_true__t0 (theory1_safe var102___hex__print__t0) )
)

(assert
  var103_true__t0
)

; : /home/runner/work/carrier/carrier/modules/slice/src/slice.zz:24
(declare-fun var104___slice__slice__eq_cstr__t0 () (_ BitVec 64))
(declare-fun var105_true__t0 () Bool)
(assert
  (= var105_true__t0 (theory1_safe var104___slice__slice__eq_cstr__t0) )
)

(assert
  var105_true__t0
)

;


;----------------------------------------------
;function ::hex::dump_slice
;----------------------------------------------

(push 1)

; : /home/runner/work/carrier/carrier/modules/hex/src/lib.zz:51
; : /home/runner/work/carrier/carrier/modules/hex/src/lib.zz:52
; call of ::slice::slice::integrity
; : /home/runner/work/carrier/carrier/modules/hex/src/lib.zz:52
; : /home/runner/work/carrier/carrier/modules/hex/src/lib.zz:52
; : /home/runner/work/carrier/carrier/modules/hex/src/lib.zz:52
; : /home/runner/work/carrier/carrier/modules/hex/src/lib.zz:52
(declare-fun var107_addressof_s___t0 () (_ BitVec 64))
(declare-fun var108_len_addressof_s____t0 () (_ BitVec 64))
(assert
  (= var108_len_addressof_s____t0 (theory0_len var107_addressof_s___t0) )
)

(assert
  (= var108_len_addressof_s____t0 (_ bv1 64))

)

(assert
  (= var107_addressof_s___t0 (_ bv106 64))

)

(declare-fun var109_true__t0 () Bool)
(assert
  (= var109_true__t0 (theory1_safe var107_addressof_s___t0) )
)

(assert
  var109_true__t0
)

; collecting theory invocation arguments
; : /home/runner/work/carrier/carrier/modules/hex/src/lib.zz:52
; : /home/runner/work/carrier/carrier/modules/hex/src/lib.zz:52
(declare-fun var110_addressof_s___t0 () (_ BitVec 64))
(declare-fun var111_len_addressof_s____t0 () (_ BitVec 64))
(assert
  (= var111_len_addressof_s____t0 (theory0_len var110_addressof_s___t0) )
)

(assert
  (= var111_len_addressof_s____t0 (_ bv1 64))

)

(assert
  (= var110_addressof_s___t0 (_ bv106 64))

)

(declare-fun var112_true__t0 () Bool)
(assert
  (= var112_true__t0 (theory1_safe var110_addressof_s___t0) )
)

(assert
  var112_true__t0
)

; end of collecting theory invocation arguments
; theory_expression
; : /home/runner/work/carrier/carrier/modules/slice/src/slice.zz:11
; : /home/runner/work/carrier/carrier/modules/slice/src/slice.zz:10
; call of safe
; : /home/runner/work/carrier/carrier/modules/slice/src/slice.zz:10
; : /home/runner/work/carrier/carrier/modules/slice/src/slice.zz:10
; : /home/runner/work/carrier/carrier/modules/slice/src/slice.zz:10
; : /home/runner/work/carrier/carrier/modules/slice/src/slice.zz:10
; collecting theory invocation arguments
; : /home/runner/work/carrier/carrier/modules/slice/src/slice.zz:10
; end of collecting theory invocation arguments
; : /home/runner/work/carrier/carrier/modules/slice/src/slice.zz:10
(declare-fun var113_s_mem__t0 () (_ BitVec 64))
(declare-fun var114_interpretation_of_theory_safe_over_s_mem__t0 () Bool)
(assert
  (= var114_interpretation_of_theory_safe_over_s_mem__t0 (theory1_safe var113_s_mem__t0) )
)

; : /home/runner/work/carrier/carrier/modules/slice/src/slice.zz:11
; : /home/runner/work/carrier/carrier/modules/slice/src/slice.zz:11
; call of len
; : /home/runner/work/carrier/carrier/modules/slice/src/slice.zz:11
; : /home/runner/work/carrier/carrier/modules/slice/src/slice.zz:11
; : /home/runner/work/carrier/carrier/modules/slice/src/slice.zz:11
; : /home/runner/work/carrier/carrier/modules/slice/src/slice.zz:11
; : /home/runner/work/carrier/carrier/modules/slice/src/slice.zz:11
; collecting theory invocation arguments
; : /home/runner/work/carrier/carrier/modules/slice/src/slice.zz:11
; : /home/runner/work/carrier/carrier/modules/slice/src/slice.zz:11
; end of collecting theory invocation arguments
; : /home/runner/work/carrier/carrier/modules/slice/src/slice.zz:11
(declare-fun var115_interpretation_of_theory_len_over_s_mem__t0 () (_ BitVec 64))
(assert
  (= var115_interpretation_of_theory_len_over_s_mem__t0 (theory0_len var113_s_mem__t0) )
)

; : /home/runner/work/carrier/carrier/modules/slice/src/slice.zz:11
; : /home/runner/work/carrier/carrier/modules/slice/src/slice.zz:11
; : /home/runner/work/carrier/carrier/modules/slice/src/slice.zz:11
; : /home/runner/work/carrier/carrier/modules/slice/src/slice.zz:11
(declare-fun var117_infix_expression__t0 () Bool)
(declare-fun var116_s_size__t0 () (_ BitVec 64))
(assert
  (=  var117_infix_expression__t0 (bvuge var115_interpretation_of_theory_len_over_s_mem__t0 var116_s_size__t0))
)

; : /home/runner/work/carrier/carrier/modules/slice/src/slice.zz:11
(declare-fun var118_infix_expression__t0 () Bool)
(assert
  (=  var118_infix_expression__t0 (and var114_interpretation_of_theory_safe_over_s_mem__t0 var117_infix_expression__t0))
)

; end of theory_expression
(assert (! var118_infix_expression__t0 :named A0))(check-sat)

; : /home/runner/work/carrier/carrier/modules/hex/src/lib.zz:54
; : /home/runner/work/carrier/carrier/modules/hex/src/lib.zz:54
; literal expr
(declare-fun var120_literal_Unsigned_0___t0 () (_ BitVec 64))
(assert
  (= var120_literal_Unsigned_0___t0 (_ bv0 64))

)

; : /home/runner/work/carrier/carrier/modules/hex/src/lib.zz:54
(declare-fun var121_safe_literal_Unsigned_0______safe_i___t0 () Bool)
(assert
  (= var121_safe_literal_Unsigned_0______safe_i___t0 (theory1_safe var120_literal_Unsigned_0___t0) )
)

(declare-fun var119_i__t1 () (_ BitVec 64))
(assert
  (= var121_safe_literal_Unsigned_0______safe_i___t0 (theory1_safe var119_i__t1) )
)

(declare-fun var122_nullterm_literal_Unsigned_0______nullterm_i___t0 () Bool)
(assert
  (= var122_nullterm_literal_Unsigned_0______nullterm_i___t0 (theory2_nullterm var120_literal_Unsigned_0___t0) )
)

(assert
  (= var122_nullterm_literal_Unsigned_0______nullterm_i___t0 (theory2_nullterm var119_i__t1) )
)

; : /home/runner/work/carrier/carrier/modules/hex/src/lib.zz:54
(declare-fun var123_implicit_coercion_of_literal_Unsigned_0___t0 () (_ BitVec 64))
(assert (! (= var123_implicit_coercion_of_literal_Unsigned_0___t0 var120_literal_Unsigned_0___t0) :named A1))(declare-fun var119_i__t0 () (_ BitVec 64))
(assert
  (= var119_i__t1  (ite true var123_implicit_coercion_of_literal_Unsigned_0___t0 var119_i__t0)  )
)

; : /home/runner/work/carrier/carrier/modules/hex/src/lib.zz:54
; : /home/runner/work/carrier/carrier/modules/hex/src/lib.zz:54
; : /home/runner/work/carrier/carrier/modules/hex/src/lib.zz:54
(declare-fun var119_i__t2 () (_ BitVec 64))
(declare-fun var124_previous_value_of_i__t1 () (_ BitVec 64))
(assert
  (= var119_i__t2 (bvadd var124_previous_value_of_i__t1 (_ bv1 64)) )
)

; : /home/runner/work/carrier/carrier/modules/hex/src/lib.zz:54
; : /home/runner/work/carrier/carrier/modules/hex/src/lib.zz:54
; : /home/runner/work/carrier/carrier/modules/hex/src/lib.zz:54
; : /home/runner/work/carrier/carrier/modules/hex/src/lib.zz:54
; : /home/runner/work/carrier/carrier/modules/hex/src/lib.zz:54
(declare-fun var125_infix_expression__t0 () Bool)
(assert
  (=  var125_infix_expression__t0 (bvult var119_i__t2 var116_s_size__t0))
)

(assert (! var125_infix_expression__t0 :named A2))(check-sat)

; : /home/runner/work/carrier/carrier/modules/hex/src/lib.zz:55
; call of ::ext::<stdio.h>::printf
; : /home/runner/work/carrier/carrier/modules/hex/src/lib.zz:55
; : /home/runner/work/carrier/carrier/modules/hex/src/lib.zz:55
(declare-fun var126_literal_string___02x____t0 () (_ BitVec 64))
(declare-fun var127_true__t0 () Bool)
(assert
  (= var127_true__t0 (theory1_safe var126_literal_string___02x____t0) )
)

(assert
  var127_true__t0
)

(declare-fun var128_true__t0 () Bool)
(assert
  (= var128_true__t0 (theory2_nullterm var126_literal_string___02x____t0) )
)

(assert
  var128_true__t0
)

; : /home/runner/work/carrier/carrier/modules/hex/src/lib.zz:55
; : /home/runner/work/carrier/carrier/modules/hex/src/lib.zz:55
; : /home/runner/work/carrier/carrier/modules/hex/src/lib.zz:55
; : /home/runner/work/carrier/carrier/modules/hex/src/lib.zz:55
(check-sat)

(get-value (

  var119_i__t2

) )

;  = "#x0000000000000002"
(push 1)

(assert
  (not (= var119_i__t2 #x0000000000000002))
)

(check-sat)

(pop 1)

; begin array bounds
; : /home/runner/work/carrier/carrier/modules/hex/src/lib.zz:55
(declare-fun var129_len_s_mem___t0 () (_ BitVec 64))
(assert
  (= var129_len_s_mem___t0 (theory0_len var113_s_mem__t0) )
)

(declare-fun var130_i___len_s_mem___t0 () Bool)
(assert
  (=  var130_i___len_s_mem___t0 (bvult var119_i__t2 var129_len_s_mem___t0))
)

; assert that length less than index is true
(push 1)

(assert
  (and true (or (not var130_i___len_s_mem___t0 ) ))

)

(check-sat)

; unsat / pass
(pop 1)

; : /home/runner/work/carrier/carrier/modules/hex/src/lib.zz:55
; : /home/runner/work/carrier/carrier/modules/hex/src/lib.zz:56
; : /home/runner/work/carrier/carrier/modules/hex/src/lib.zz:56
; : /home/runner/work/carrier/carrier/modules/hex/src/lib.zz:56
; : /home/runner/work/carrier/carrier/modules/hex/src/lib.zz:56
; literal expr
(declare-fun var133_literal_Unsigned_16___t0 () (_ BitVec 64))
(assert
  (= var133_literal_Unsigned_16___t0 (_ bv16 64))

)

(declare-fun var134_implicit_coercion_of_literal_Unsigned_16___t0 () (_ BitVec 64))
(assert (! (= var134_implicit_coercion_of_literal_Unsigned_16___t0 var133_literal_Unsigned_16___t0) :named A3)); : /home/runner/work/carrier/carrier/modules/hex/src/lib.zz:56
(declare-fun var135_infix_expression__t0 () (_ BitVec 64))
(assert
  (=  var135_infix_expression__t0 (bvsmod var119_i__t2 var134_implicit_coercion_of_literal_Unsigned_16___t0))
)

; : /home/runner/work/carrier/carrier/modules/hex/src/lib.zz:56
; literal expr
(declare-fun var136_literal_Unsigned_15___t0 () (_ BitVec 64))
(assert
  (= var136_literal_Unsigned_15___t0 (_ bv15 64))

)

(declare-fun var137_implicit_coercion_of_literal_Unsigned_15___t0 () (_ BitVec 64))
(assert (! (= var137_implicit_coercion_of_literal_Unsigned_15___t0 var136_literal_Unsigned_15___t0) :named A4)); : /home/runner/work/carrier/carrier/modules/hex/src/lib.zz:56
(declare-fun var138_infix_expression__t0 () Bool)
(assert
  (=  var138_infix_expression__t0 (= var135_infix_expression__t0 var137_implicit_coercion_of_literal_Unsigned_15___t0))
)

(check-sat)

(get-value (

  var138_infix_expression__t0

) )

;  = "false"
(push 1)

(assert
  (not (= var138_infix_expression__t0 false))
)

(check-sat)

(pop 1)

; : /home/runner/work/carrier/carrier/modules/hex/src/lib.zz:56
; : /home/runner/work/carrier/carrier/modules/hex/src/lib.zz:57
; call of ::ext::<stdio.h>::printf
; : /home/runner/work/carrier/carrier/modules/hex/src/lib.zz:57
; : /home/runner/work/carrier/carrier/modules/hex/src/lib.zz:57
(declare-fun var139_literal_string______t0 () (_ BitVec 64))
(declare-fun var140_true__t0 () Bool)
(assert
  (= var140_true__t0 (theory1_safe var139_literal_string______t0) )
)

(assert
  var140_true__t0
)

(declare-fun var141_true__t0 () Bool)
(assert
  (= var141_true__t0 (theory2_nullterm var139_literal_string______t0) )
)

(assert
  var141_true__t0
)

; : /home/runner/work/carrier/carrier/modules/hex/src/lib.zz:57
; end branch
; : /home/runner/work/carrier/carrier/modules/hex/src/lib.zz:60
; call of ::ext::<stdio.h>::printf
; : /home/runner/work/carrier/carrier/modules/hex/src/lib.zz:60
; : /home/runner/work/carrier/carrier/modules/hex/src/lib.zz:60
(declare-fun var143_literal_string______t0 () (_ BitVec 64))
(declare-fun var144_true__t0 () Bool)
(assert
  (= var144_true__t0 (theory1_safe var143_literal_string______t0) )
)

(assert
  var144_true__t0
)

(declare-fun var145_true__t0 () Bool)
(assert
  (= var145_true__t0 (theory2_nullterm var143_literal_string______t0) )
)

(assert
  var145_true__t0
)

; : /home/runner/work/carrier/carrier/modules/hex/src/lib.zz:60
;end of function ::hex::dump_slice


(pop 1)

(declare-fun var107_addressof_s___t0 () (_ BitVec 64))
(declare-fun var108_len_addressof_s____t0 () (_ BitVec 64))
(declare-fun var109_true__t0 () Bool)
(declare-fun var110_addressof_s___t0 () (_ BitVec 64))
(declare-fun var111_len_addressof_s____t0 () (_ BitVec 64))
(declare-fun var112_true__t0 () Bool)
(declare-fun var113_s_mem__t0 () (_ BitVec 64))
(declare-fun var114_interpretation_of_theory_safe_over_s_mem__t0 () Bool)
(declare-fun var115_interpretation_of_theory_len_over_s_mem__t0 () (_ BitVec 64))
(declare-fun var116_s_size__t0 () (_ BitVec 64))
(declare-fun var120_literal_Unsigned_0___t0 () (_ BitVec 64))
(declare-fun var121_safe_literal_Unsigned_0______safe_i___t0 () Bool)
(declare-fun var119_i__t1 () (_ BitVec 64))
(declare-fun var122_nullterm_literal_Unsigned_0______nullterm_i___t0 () Bool)
(declare-fun var126_literal_string___02x____t0 () (_ BitVec 64))
(declare-fun var127_true__t0 () Bool)
(declare-fun var128_true__t0 () Bool)
(declare-fun var129_len_s_mem___t0 () (_ BitVec 64))
(declare-fun var133_literal_Unsigned_16___t0 () (_ BitVec 64))
(declare-fun var136_literal_Unsigned_15___t0 () (_ BitVec 64))
(declare-fun var139_literal_string______t0 () (_ BitVec 64))
(declare-fun var140_true__t0 () Bool)
(declare-fun var141_true__t0 () Bool)
(declare-fun var143_literal_string______t0 () (_ BitVec 64))
(declare-fun var144_true__t0 () Bool)
(declare-fun var145_true__t0 () Bool)
(check-sat)

